Step 2/6S/22 14 21 29 33 39/Cluster 5/VRPwTW.sol
Total_Cost = 2686.35

X :=
MoscowDepot Ufa_Magnit  1   1
Ufa_ASHAN   Ufa_LENTA   1   1
Ufa_LENTA   Ufa_OKEYmj  1   1
Ufa_Magnit  Ufa_ASHAN   1   1
Ufa_OKEYe   Ufa_OKEYk   1   1
Ufa_OKEYk   MoscowDepot 1   1
Ufa_OKEYmj  Ufa_OKEYe   1   1
;

Served :=
Ufa_ASHAN  4   1
Ufa_LENTA  4   1
Ufa_Magnit 4   1
Ufa_OKEYe  4   1
Ufa_OKEYk  4   1
Ufa_OKEYmj 4   1
;

ATime :=
MoscowDepot 1   107.74
Ufa_ASHAN   1    88.24
Ufa_LENTA   1    89
Ufa_Magnit  1    87.8
Ufa_OKEYe   1    89.8
Ufa_OKEYk   1    90.07
Ufa_OKEYmj  1    89.48
;

DTime :=
MoscowDepot 1   70.53
Ufa_ASHAN   1   88.79
Ufa_LENTA   1   89.2
Ufa_Magnit  1   88
Ufa_OKEYe   1   90
Ufa_OKEYk   1   90.27
Ufa_OKEYmj  1   89.68
;

RouteDuration [*] :=
1  35.66
;

WTime :=
MoscowDepot 1   0
Ufa_ASHAN   1   0.35
Ufa_LENTA   1   0
Ufa_Magnit  1   0
Ufa_OKEYe   1   0
Ufa_OKEYk   1   0
Ufa_OKEYmj  1   0
;
